c description: Random 3-CNF over 21 variables and 89 clauses
c generator: CNFgen (0.9.2)
c copyright: (C) 2012-2022 Massimo Lauria <massimo.lauria@uniroma1.it>
c url: https://massimolauria.net/cnfgen
c command line: cnfgen --output CNF_4.28/21_bit_89_689.cnf randkcnf 3 21 89
c
p cnf 21 89
3 5 -16 0
-1 -3 5 0
7 -10 21 0
-2 6 17 0
3 12 18 0
5 18 21 0
-1 -2 11 0
7 13 -20 0
-2 -10 -15 0
10 -12 -15 0
-1 -4 5 0
-8 -16 19 0
5 18 20 0
-6 11 17 0
-1 13 20 0
-4 7 11 0
-2 -9 -17 0
12 -13 20 0
-1 8 -15 0
-7 -8 -16 0
7 -18 -21 0
1 -12 -15 0
2 -7 9 0
5 -11 -20 0
6 -15 20 0
-1 8 21 0
-4 13 16 0
-3 4 12 0
8 14 20 0
5 -6 -21 0
-5 -10 -21 0
12 -16 18 0
1 -9 -16 0
5 10 16 0
2 8 -9 0
12 13 19 0
7 10 16 0
-11 -16 -20 0
10 18 19 0
-4 -20 -21 0
4 9 14 0
14 -20 -21 0
11 17 -21 0
-1 7 17 0
-2 3 4 0
-3 -7 -12 0
-3 8 -10 0
6 9 -16 0
-11 -15 -17 0
-3 -16 21 0
-11 15 -18 0
-7 8 -12 0
4 -9 12 0
4 10 -15 0
-6 15 17 0
-11 -14 19 0
3 -8 18 0
1 13 14 0
11 -17 -18 0
-15 17 -20 0
8 -11 -20 0
6 -12 -19 0
12 16 21 0
1 5 -21 0
2 10 -11 0
-4 5 17 0
-3 6 -17 0
-6 -13 16 0
3 -8 -20 0
-2 14 15 0
1 12 18 0
2 -6 19 0
-11 18 19 0
-2 -8 -13 0
3 -17 -19 0
-7 -17 -20 0
-3 18 -19 0
1 -7 -21 0
-1 13 16 0
5 -7 -13 0
-10 19 20 0
-10 12 -15 0
-3 -17 18 0
4 -12 18 0
-9 18 20 0
8 -9 -17 0
-5 -12 20 0
-6 -10 12 0
-5 -7 -9 0
